(set-info :smt-lib-version 2.7)
(set-logic QF_EIA)
(set-info :source |
Generated by: Florian Frohn
Generator: LoAT
Application: proving lower bounds on the worst-case runtime of transition systems
Target solver: SwInE
Time limit: 1.0
Benchmarks generated by the verification tool LoAT to evaluate the SMT solver
SwInE. We extracted all benchmarks with exponentiation that were generated by
LoAT when analyzing the examples from the category LIA-Lin (linear CHCs with
linear integer arithmetic) of the CHC competitions 2022 and 2023, and when
analyzing the examples from the categories "Termination of Integer Transition
Systems" and "Complexity of Integer Transition Systems" of the Termination and
Complexity Competition 2024. From the entire set, we selected those where
* SwInE v0.1.0 or SwInE-Z3 v0.1.2 failed or needed more than 1 second, or
* SwInE-Z3 v0.1.2 failed without phasing, a technique to prevent SwInE from
  computing with huge constants (described here
  https://arxiv.org/abs/2502.04761)
If several selected benchmarks only differed in lines not containing
exponentiation, we kept only one of them. This benchmark is known to be
satisfiable with the slightly different semantics of exponentiation used by the
versions of SwInE mentioned above.
|)
(set-info :license "https://creativecommons.org/licenses/by/4.0/")
(set-info :category "industrial")
(set-info :status unknown)

(declare-fun i1 () Int)
(declare-fun it1 () Int)
(declare-fun i2 () Int)
(declare-fun it2 () Int)
(declare-fun i3 () Int)
(declare-fun it3 () Int)
(declare-fun it4 () Int)
(declare-fun i4 () Int)
(declare-fun i5 () Int)
(declare-fun it5 () Int)
(declare-fun i6 () Int)
(declare-fun it6 () Int)
(declare-fun it152 () Int)
(declare-fun it127 () Int)
(declare-fun it13 () Int)
(declare-fun it155 () Int)
(declare-fun it156 () Int)
(declare-fun it157 () Int)
(declare-fun it158 () Int)
(declare-fun it159 () Int)
(declare-fun it160 () Int)
(declare-fun it163 () Int)
(declare-fun it211 () Int)
(declare-fun it212 () Int)
(declare-fun it213 () Int)
(declare-fun it214 () Int)
(declare-fun it215 () Int)
(declare-fun it216 () Int)
(assert (= (+ i1 (- 1)) 0))
(assert (= (+ it1 (- 2)) 0))
(assert (= (+ it2 (* i2 (- 1)) (- 1)) 0))
(assert (= (+ it3 (* i3 (- 1))) 0))
(assert (= (+ (* i4 (- 1)) it4) 0))
(assert (= (+ it5 (* i5 (- 1))) 0))
(assert (= (+ it6 (* i6 (- 1))) 0))
(assert (let ((a!1 (+ (* (+ it152 (- 1)) it13 (- 2))
              it3
              (* it13 (- 2))
              (* it127 (+ it152 (- 1)) (- 2))))
      (a!2 (+ (* it127 (- 2))
              (* (+ it152 (- 1)) it13 (- 2))
              it3
              (* it13 (- 2))
              (* it127 (+ it152 (- 1)) (- 2)))))
  (and (> (+ a!1 1) 0)
       (> (+ a!2 1) 0)
       (> (+ a!2 2) 0)
       (>= (+ (* it1 (- 1)) 2) 0)
       (> (+ a!1 2) 0)
       (>= (+ it13 (- 1)) 0)
       (> (+ it3 (* it13 (- 2)) 1) 0)
       (>= (+ it1 (- 2)) 0)
       (>= (+ it127 (- 1)) 0)
       (>= (+ it152 (- 1)) 0))))
(assert (= (+ it155 (* it1 (- 1))) 0))
(assert (= (+ (* it2 (- 1)) (* it152 it13 (- 2)) it156 (* it127 it152 (- 2))) 0))
(assert (= (+ (* it152 it13 2) (* it3 (- 1)) (* it127 it152 2) it157) 0))
(assert (let ((a!1 (* (** (- 1) (+ (* it152 it13) (* it127 it152)))
              (+ 0 it4)
              (+ 0 (- 1)))))
  (= (+ (+ 0 it158) a!1) (+ 0 0))))
(assert (let ((a!1 (* (** (- 1) (+ (* it152 it13) (* it127 it152)))
              (+ 0 it5)
              (+ 0 (- 1)))))
  (= (+ a!1 (+ 0 it159)) (+ 0 0))))
(assert (let ((a!1 (+ (* (** it127 3) (** it152 3) (+ 0 (- 8)))
              (+ 0 (* it152 it13 (- 1)))
              (* (** it127 2) (** it152 3) (+ 0 it13) (+ 0 (- 24)))
              (* (* (** it127 2) (** it152 2)) (+ 0 6))
              (+ 0 (* it152 it3 it13 (- 6)))
              (* (* (+ 0 it127) (** it152 2))
                 (+ 0 it3)
                 (+ 0 it13)
                 (+ 0 24))
              (+ 0 (* it6 (- 3)))
              (* (+ 0 it152) (** it3 2) (+ 0 it13) (+ 0 (- 6)))
              (+ 0 (* (* it127 it152) it3 (- 6)))
              (* (* (** it127 2) (** it152 2)) (+ 0 it3) (+ 0 12))
              (* (** it152 3) (** it13 3) (+ 0 (- 8)))
              (* (* (+ 0 it127) (** it152 2)) (+ 0 it13) (+ 0 12))
              (+ 0 (* (* it127 it152) (- 1)))
              (* (** it152 2) (+ 0 it3) (** it13 2) (+ 0 12))
              (* (** it152 2) (** it13 2) (+ 0 6))
              (+ 0 (* it160 3))
              (* (+ 0 it127) (** it152 3) (** it13 2) (+ 0 (- 24)))
              (* (+ 0 (* it127 it152)) (** it3 2) (+ 0 (- 6))))))
  (= a!1 (+ 0 0))))
(assert (let ((a!1 (> (+ (+ (* it163 (- 2)) it157) 2) 0))
      (a!2 (> (+ (+ (* it163 (- 2)) it157) 1) 0)))
  (and (>= (+ (* it155 (- 1)) 2) 0)
       a!1
       (>= (+ it163 (- 1)) 0)
       (>= (+ it155 (- 2)) 0)
       a!2)))
(assert (= (+ (* it155 (- 1)) it211) 0))
(assert (= (+ (* it156 (- 1)) (* it163 (- 2)) it212) 0))
(assert (= (+ it213 (* it163 2) (* it157 (- 1))) 0))
(assert (= (+ (+ 0 it214) (* (+ 0 it158) (** (- 1) it163) (+ 0 (- 1))))
   (+ 0 0)))
(assert (= (+ (* (+ 0 it159) (** (- 1) it163) (+ 0 (- 1))) (+ 0 it215))
   (+ 0 0)))
(assert (= (+ (* (** it163 2) (+ 0 6))
      (+ 0 (* it163 it157 (- 6)))
      (* (** it163 3) (+ 0 (- 8)))
      (+ 0 (* it216 3))
      (* (+ 0 it163) (** it157 2) (+ 0 (- 6)))
      (+ 0 (* it163 (- 1)))
      (+ 0 (* it160 (- 3)))
      (* (** it163 2) (+ 0 it157) (+ 0 12)))
   (+ 0 0)))
(check-sat)
(exit)
